Version identifier: 20.1.0.0 | 2020-11-10 | 9bedb6d68
Tried aggregator 2 times.
MIP Presolve eliminated 1760 rows and 853 columns.
MIP Presolve modified 4758 coefficients.
Aggregator did 190 substitutions.
Reduced MIP has 2859 rows, 2272 columns, and 9386 nonzeros.
Reduced MIP has 459 binaries, 1813 generals, 0 SOSs, and 0 indicators.
Presolve time = 0.03 sec. (10.98 ticks)
Probing fixed 60 vars, tightened 703 bounds.
Probing time = 0.00 sec. (2.07 ticks)
Tried aggregator 2 times.
Detecting symmetries...
MIP Presolve eliminated 1170 rows and 68 columns.
MIP Presolve modified 229 coefficients.
Aggregator did 8 substitutions.
Reduced MIP has 1681 rows, 2196 columns, and 5496 nonzeros.
Reduced MIP has 625 binaries, 1571 generals, 0 SOSs, and 0 indicators.
Presolve time = 0.02 sec. (7.77 ticks)
Probing time = 0.00 sec. (0.41 ticks)
Clique table members: 5.
MIP emphasis: balance optimality and feasibility.
MIP search method: dynamic search.
Parallel mode: deterministic, using up to 24 threads.
Root relaxation solution time = 0.02 sec. (4.78 ticks)

        Nodes                                         Cuts/
   Node  Left     Objective  IInf  Best Integer    Best Bound    ItCnt     Gap

      0     0        0.0000    64                      0.0000      467         
      0     0        0.0000    81                   Cuts: 186      605         
*     0+    0                           22.0000        0.0000           100.00%
*     0+    0                           13.0000        0.0000           100.00%
      0     0        0.0000    59       13.0000      Cuts: 88      739    7.69%
      0     0        0.0000    58       13.0000      Cuts: 69      832    7.69%
*     0+    0                           12.0000       12.0000             0.00%
      0     0        cutoff             12.0000       12.0000      832    0.00%
Elapsed time = 1.67 sec. (230.66 ticks, tree = 0.01 MB, solutions = 3)

Implied bound cuts applied:  75
Flow cuts applied:  3
Mixed integer rounding cuts applied:  18
Zero-half cuts applied:  65
Lift and project cuts applied:  15
Gomory fractional cuts applied:  29

Root node processing (before b&c):
  Real time             =    1.68 sec. (230.84 ticks)
Parallel b&c, 24 threads:
  Real time             =    0.00 sec. (0.00 ticks)
  Sync time (average)   =    0.00 sec.
  Wait time (average)   =    0.00 sec.
                          ------------
Total (root+branch&cut) =    1.68 sec. (230.84 ticks)

Solution status = Optimal
Solution LB = 12
Solution UB = 12
Runtime = 1.6887 seconds
	Command being timed: "/home/min/git_repos/CS598MEBProject/CNT-ILP/build/cnt -s 2 ./output/k8_n30/simC_c1_k8_n30_u2_s1_del04.input-left.cnp"
	User time (seconds): 25.76
	System time (seconds): 0.12
	Percent of CPU this job got: 1492%
	Elapsed (wall clock) time (h:mm:ss or m:ss): 0:01.73
	Average shared text size (kbytes): 0
	Average unshared data size (kbytes): 0
	Average stack size (kbytes): 0
	Average total size (kbytes): 0
	Maximum resident set size (kbytes): 132056
	Average resident set size (kbytes): 0
	Major (requiring I/O) page faults: 0
	Minor (reclaiming a frame) page faults: 42772
	Voluntary context switches: 5932
	Involuntary context switches: 3112
	Swaps: 0
	File system inputs: 0
	File system outputs: 16
	Socket messages sent: 0
	Socket messages received: 0
	Signals delivered: 0
	Page size (bytes): 4096
	Exit status: 0
